53776
19, 44, 8, 38, 35, 5, 37, 7, 20, 50, 24, 32, 41, 13, 51, 40, 43, 3, 6, 28, 55, 26, 53, 34, 54, 47, 30, 4, 18, 12, 9, 14, 2, 45, 11, 25, 31, 27, 1, 33, 42, 52, 15, 36, 46, 39, 16, 10, 22, 29, 21, 23, 17, 48, 49
